p edge 25 31
e 1 6
e 1 9
e 1 17
e 2 3
e 2 12
e 2 14
e 2 17
e 3 11
e 3 16
e 3 17
e 4 6
e 4 22
e 5 7
e 6 19
e 6 20
e 7 12
e 7 17
e 7 20
e 8 15
e 9 12
e 10 23
e 11 23
e 12 22
e 12 23
e 13 20
e 14 23
e 14 25
e 15 17
e 16 21
e 17 23
e 20 25
